# 3d Lennard-Jones melt

units           lj
atom_style      atomic

read_data       data.lj

mass            1 1.0

velocity        all create 0.0 87287

pair_style	lj/cut 2.5
pair_modify     shift no
pair_coeff	1 1 1.0 1.0 

neighbor	0.3 bin
neigh_modify	delay 0 every 1 check yes

thermo          10000
thermo_style    custom step temp press pxy etotal pe ke
thermo_modify   norm no

timestep        0.005

fix             1 all nve

run		1000
