# 3D Lennard-Jones melt

units           lj
atom_style      atomic

read_data       lammps_lennard_jones.start

mass            1 1.0

#velocity        all create 0.8 987256 dist gaussian mom yes

pair_style	lj/cut 2.5
pair_coeff	1 1 1.0 1.0

neighbor	0.3 bin
neigh_modify	every 1 delay 0 check yes

thermo          100
thermo_style    custom step temp press pxy etotal pe ke
thermo_modify   norm no

timestep        0.005

fix             1 all nve
#fix             2 all langevin 1.0 1.0 1.0 699483

run		1000
