# 3d Lennard-Jones melt

read_data       data.lj

pair_style	lj/cut 2.5 
pair_coeff	1 1 1.0 1.0 2.5
pair_modify     shift yes

neighbor	0.3 bin
neigh_modify	delay 0 every 1 check yes

thermo_style    custom etotal epair ke temp

# timestep 0.005 is default

timestep        0.005

fix 1 all nve

run		1000
