# polymer melt

units           lj
atom_style      angle

read_data       lammps_polymer_melt.start
special_bonds   lj 1.0 1.0 1.0

mass            1 1.0

velocity        all create 0.0 87287

pair_style      lj/cut 1.12
pair_modify     shift no
pair_coeff      1 1 1.0 1.0 1.12

bond_style      fene
bond_coeff      1 30.0 1.5 0.0 0.0

angle_style     cosine
angle_coeff     1 1.5

neighbor        0.3 bin
neigh_modify    every 1 delay 0 check yes

timestep        0.01

thermo          1000
thermo_style    custom step temp press pxy etotal ke epair ebond eangle
thermo_modify   norm no

fix             1 all nve
fix             2 all langevin 1.0 1.0 1.0 699483

run 1000
